p cnf 50 700
1 -50 -48 0
1 -50 -32 0
1 -50 -28 0
1 -50 -27 0
1 -50 -25 0
1 -50 -17 0
1 -50 -8 0
1 -50 6 0
1 -50 21 0
1 -50 34 0
1 -50 38 0
1 -50 45 0
1 -50 46 0
1 -50 48 0
1 -49 -35 0
1 -49 -29 0
1 -49 -26 0
1 -49 -22 0
1 -49 -16 0
1 -49 -10 0
1 -49 -9 0
1 -49 6 0
1 -49 7 0
1 -49 8 0
1 -49 15 0
1 -49 17 0
1 -49 25 0
1 -49 41 0
1 -48 -45 0
1 -48 -44 0
1 -48 -14 0
1 -48 -5 0
1 -48 -1 0
1 -48 3 0
1 -48 4 0
1 -48 14 0
1 -48 24 0
1 -48 28 0
1 -48 34 0
1 -48 43 0
1 -48 47 0
1 -47 -44 0
1 -47 -31 0
1 -47 -30 0
1 -47 -13 0
1 -47 -10 0
1 -47 -4 0
1 -47 -1 0
1 -47 1 0
1 -47 14 0
1 -47 16 0
1 -47 24 0
1 -47 27 0
1 -47 41 0
1 -47 43 0
1 -46 -36 0
1 -46 -28 0
1 -46 -27 0
1 -46 -15 0
1 -46 -11 0
1 -46 7 0
1 -46 9 0
1 -46 10 0
1 -46 11 0
1 -46 13 0
1 -46 18 0
1 -46 28 0
1 -46 33 0
1 -46 39 0
1 -45 -42 0
1 -45 -31 0
1 -45 -25 0
1 -45 -2 0
1 -45 1 0
1 -45 7 0
1 -45 8 0
1 -45 14 0
1 -45 19 0
1 -45 20 0
1 -45 26 0
1 -45 43 0
1 -45 46 0
1 -44 -40 0
1 -44 -6 0
1 -44 5 0
1 -44 7 0
1 -44 21 0
1 -44 24 0
1 -44 27 0
1 -44 35 0
1 -44 38 0
1 -44 42 0
1 -44 45 0
1 -44 48 0
1 -43 -32 0
1 -43 -30 0
1 -43 -26 0
1 -43 -23 0
1 -43 6 0
1 -43 8 0
1 -43 13 0
1 -43 18 0
1 -43 23 0
1 -43 28 0
1 -43 31 0
1 -43 34 0
1 -43 36 0
1 -43 44 0
1 -42 -41 0
1 -42 -37 0
1 -42 -21 0
1 -42 -18 0
1 -42 -5 0
1 -42 12 0
1 -42 26 0
1 -42 29 0
1 -42 31 0
1 -42 32 0
1 -42 35 0
1 -42 44 0
1 -42 46 0
1 -41 -40 0
1 -41 -35 0
1 -41 -30 0
1 -41 -29 0
1 -41 -22 0
1 -41 -21 0
1 -41 -15 0
1 -41 -14 0
1 -41 -8 0
1 -41 16 0
1 -41 21 0
1 -41 32 0
1 -41 37 0
1 -40 -39 0
1 -40 -38 0
1 -40 -30 0
1 -40 -23 0
1 -40 10 0
1 -40 16 0
1 -40 20 0
1 -40 22 0
1 -40 28 0
1 -40 31 0
1 -40 35 0
1 -40 41 0
1 -39 -37 0
1 -39 -35 0
1 -39 -33 0
1 -39 -25 0
1 -39 -24 0
1 -39 -16 0
1 -39 -15 0
1 -39 1 0
1 -39 7 0
1 -39 9 0
1 -39 14 0
1 -39 27 0
1 -39 33 0
1 -38 -33 0
1 -38 -30 0
1 -38 -23 0
1 -38 -20 0
1 -38 -12 0
1 -38 -7 0
1 -38 8 0
1 -38 10 0
1 -38 12 0
1 -38 15 0
1 -38 24 0
1 -38 31 0
1 -38 42 0
1 -37 -35 0
1 -37 -16 0
1 -37 -12 0
1 -37 -10 0
1 -37 -6 0
1 -37 -5 0
1 -37 8 0
1 -37 15 0
1 -37 19 0
1 -37 27 0
1 -37 41 0
1 -37 46 0
1 -36 -26 0
1 -36 -21 0
1 -36 -19 0
1 -36 -14 0
1 -36 -5 0
1 -36 8 0
1 -36 10 0
1 -36 15 0
1 -36 16 0
1 -36 32 0
1 -36 41 0
1 -36 45 0
1 -36 48 0
1 -35 -34 0
1 -35 -32 0
1 -35 -30 0
1 -35 4 0
1 -35 14 0
1 -35 21 0
1 -35 24 0
1 -35 27 0
1 -35 29 0
1 -35 40 0
1 -34 -29 0
1 -34 -18 0
1 -34 -7 0
1 -34 8 0
1 -34 19 0
1 -34 22 0
1 -34 25 0
1 -34 26 0
1 -34 35 0
1 -34 37 0
1 -34 42 0
1 -34 44 0
1 -34 50 0
1 -33 -13 0
1 -33 -12 0
1 -33 -5 0
1 -33 -2 0
1 -33 2 0
1 -33 23 0
1 -33 24 0
1 -33 30 0
1 -33 32 0
1 -33 35 0
1 -33 38 0
1 -33 44 0
1 -32 -27 0
1 -32 -23 0
1 -32 -11 0
1 -32 -5 0
1 -32 -1 0
1 -32 3 0
1 -32 15 0
1 -32 30 0
1 -32 36 0
1 -32 42 0
1 -32 47 0
1 -31 -24 0
1 -31 -23 0
1 -31 -17 0
1 -31 -11 0
1 -31 -3 0
1 -31 -1 0
1 -31 7 0
1 -31 20 0
1 -31 26 0
1 -31 38 0
1 -31 45 0
1 -31 50 0
1 -30 -28 0
1 -30 -23 0
1 -30 -13 0
1 -30 -9 0
1 -30 3 0
1 -30 36 0
1 -30 40 0
1 -30 46 0
1 -29 -27 0
1 -29 3 0
1 -29 13 0
1 -29 18 0
1 -29 34 0
1 -29 36 0
1 -29 38 0
1 -29 42 0
1 -29 43 0
1 -29 48 0
1 -29 49 0
1 -28 -26 0
1 -28 -13 0
1 -28 -9 0
1 -28 -6 0
1 -28 -4 0
1 -28 -3 0
1 -28 1 0
1 -28 17 0
1 -28 22 0
1 -28 26 0
1 -28 41 0
1 -27 -25 0
1 -27 -24 0
1 -27 -21 0
1 -27 -20 0
1 -27 5 0
1 -27 12 0
1 -27 16 0
1 -27 30 0
1 -27 46 0
1 -27 50 0
1 -26 -22 0
1 -26 -21 0
1 -26 -14 0
1 -26 -10 0
1 -26 -7 0
1 -26 -1 0
1 -26 9 0
1 -26 12 0
1 -26 39 0
1 -26 45 0
1 -25 -20 0
1 -25 -15 0
1 -25 -14 0
1 -25 -12 0
1 -25 -2 0
1 -25 24 0
1 -25 27 0
1 -25 35 0
1 -25 37 0
1 -25 39 0
1 -24 -18 0
1 -24 -17 0
1 -24 -15 0
1 -24 1 0
1 -24 4 0
1 -24 5 0
1 -24 16 0
1 -24 29 0
1 -24 32 0
1 -24 42 0
1 -24 44 0
1 -23 -20 0
1 -23 -16 0
1 -23 -10 0
1 -23 -9 0
1 -23 10 0
1 -23 31 0
1 -23 34 0
1 -23 49 0
1 -22 -21 0
1 -22 -6 0
1 -22 -4 0
1 -22 -1 0
1 -22 17 0
1 -22 18 0
1 -22 27 0
1 -22 33 0
1 -22 38 0
1 -22 42 0
1 -22 44 0
1 -21 -14 0
1 -21 1 0
1 -21 2 0
1 -21 10 0
1 -21 11 0
1 -21 29 0
1 -21 44 0
1 -21 45 0
1 -20 -10 0
1 -20 -8 0
1 -20 -3 0
1 -20 2 0
1 -20 5 0
1 -20 15 0
1 -20 17 0
1 -20 25 0
1 -20 27 0
1 -20 49 0
1 -19 -18 0
1 -19 -12 0
1 -19 -8 0
1 -19 -2 0
1 -19 -1 0
1 -19 1 0
1 -19 13 0
1 -19 16 0
1 -19 25 0
1 -19 37 0
1 -19 39 0
1 -19 41 0
1 -19 46 0
1 -18 -9 0
1 -18 -7 0
1 -18 3 0
1 -18 7 0
1 -18 12 0
1 -18 16 0
1 -18 17 0
1 -18 41 0
1 -18 46 0
1 -18 49 0
1 -17 -14 0
1 -17 -1 0
1 -17 4 0
1 -17 9 0
1 -17 20 0
1 -17 24 0
1 -17 37 0
1 -17 43 0
1 -17 44 0
1 -17 47 0
1 -17 48 0
1 -16 -13 0
1 -16 -6 0
1 -16 5 0
1 -16 8 0
1 -16 15 0
1 -16 19 0
1 -16 21 0
1 -16 28 0
1 -16 41 0
1 -16 47 0
1 -15 -14 0
1 -15 -12 0
1 -15 -7 0
1 -15 -4 0
1 -15 4 0
1 -15 16 0
1 -15 20 0
1 -15 23 0
1 -15 26 0
1 -14 -12 0
1 -14 -11 0
1 -14 -6 0
1 -14 -3 0
1 -14 37 0
1 -14 42 0
1 -13 -1 0
1 -13 7 0
1 -13 9 0
1 -13 12 0
1 -13 18 0
1 -13 31 0
1 -13 32 0
1 -13 38 0
1 -13 39 0
1 -12 1 0
1 -12 3 0
1 -12 13 0
1 -12 14 0
1 -12 26 0
1 -12 47 0
1 -12 48 0
1 -11 -9 0
1 -11 -6 0
1 -11 10 0
1 -11 14 0
1 -11 15 0
1 -11 17 0
1 -11 33 0
1 -11 34 0
1 -11 39 0
1 -11 49 0
1 -10 4 0
1 -10 9 0
1 -10 11 0
1 -10 15 0
1 -10 18 0
1 -10 29 0
1 -10 36 0
1 -10 41 0
1 -9 5 0
1 -9 13 0
1 -9 18 0
1 -9 21 0
1 -9 26 0
1 -9 34 0
1 -9 46 0
1 -9 47 0
1 -8 -2 0
1 -8 9 0
1 -8 14 0
1 -8 27 0
1 -8 30 0
1 -8 32 0
1 -8 33 0
1 -8 34 0
1 -8 44 0
1 -8 49 0
1 -7 -1 0
1 -7 2 0
1 -7 12 0
1 -7 15 0
1 -7 17 0
1 -7 23 0
1 -7 30 0
1 -7 33 0
1 -7 36 0
1 -6 7 0
1 -6 25 0
1 -6 28 0
1 -6 29 0
1 -6 38 0
1 -6 43 0
1 -6 50 0
1 -5 -3 0
1 -5 2 0
1 -5 9 0
1 -5 15 0
1 -5 19 0
1 -5 22 0
1 -5 32 0
1 -5 45 0
1 -4 3 0
1 -4 8 0
1 -4 10 0
1 -4 12 0
1 -4 16 0
1 -4 17 0
1 -4 18 0
1 -4 30 0
1 -4 35 0
1 -4 42 0
1 -3 9 0
1 -3 10 0
1 -3 14 0
1 -3 25 0
1 -3 30 0
1 -3 31 0
1 -3 34 0
1 -3 49 0
1 -3 50 0
1 -2 6 0
1 -2 9 0
1 -2 10 0
1 -2 11 0
1 -2 20 0
1 -2 33 0
1 -2 42 0
1 -2 48 0
1 -2 50 0
1 -1 5 0
1 -1 25 0
1 -1 45 0
1 -1 49 0
1 1 15 0
1 1 24 0
1 1 35 0
1 1 40 0
1 1 46 0
1 1 50 0
1 2 3 0
1 2 12 0
1 2 22 0
1 2 23 0
1 2 24 0
1 2 29 0
1 2 36 0
1 2 41 0
1 2 44 0
1 3 6 0
1 3 8 0
1 3 24 0
1 3 25 0
1 3 44 0
1 3 47 0
1 4 9 0
1 4 13 0
1 4 22 0
1 4 34 0
1 4 39 0
1 4 44 0
1 4 49 0
1 4 50 0
1 5 6 0
1 5 10 0
1 5 11 0
1 5 21 0
1 5 23 0
1 5 28 0
1 5 47 0
1 6 7 0
1 6 17 0
1 6 18 0
1 6 22 0
1 6 24 0
1 6 31 0
1 6 34 0
1 6 39 0
1 7 13 0
1 7 14 0
1 7 23 0
1 7 46 0
1 8 11 0
1 8 19 0
1 8 27 0
1 8 47 0
1 9 35 0
1 9 37 0
1 9 40 0
1 10 18 0
1 10 20 0
1 10 48 0
1 11 20 0
1 11 21 0
1 11 25 0
1 11 29 0
1 11 34 0
1 11 36 0
1 11 40 0
1 11 43 0
1 12 21 0
1 12 30 0
1 12 31 0
1 12 35 0
1 12 40 0
1 13 18 0
1 13 23 0
1 13 27 0
1 13 31 0
1 13 47 0
1 13 50 0
1 14 21 0
1 14 22 0
1 14 23 0
1 14 50 0
1 15 18 0
1 15 30 0
1 16 18 0
1 16 30 0
1 16 47 0
1 16 50 0
1 17 18 0
1 17 23 0
1 17 33 0
1 17 39 0
1 17 40 0
1 19 23 0
1 19 28 0
1 19 29 0
1 19 32 0
1 19 37 0
1 19 39 0
1 19 40 0
1 19 50 0
1 20 24 0
1 20 28 0
1 20 29 0
1 20 36 0
1 20 38 0
1 20 44 0
1 21 23 0
1 21 26 0
1 21 29 0
1 21 48 0
1 22 26 0
1 22 30 0
1 22 33 0
1 22 39 0
1 22 40 0
1 22 41 0
1 23 25 0
1 23 43 0
1 24 35 0
1 25 27 0
1 25 32 0
1 25 41 0
1 25 43 0
1 26 27 0
1 26 36 0
1 26 37 0
1 26 45 0
1 27 28 0
1 28 31 0
1 28 37 0
1 28 38 0
1 28 48 0
1 29 31 0
1 29 43 0
1 29 47 0
1 30 38 0
1 30 43 0
1 30 45 0
1 31 36 0
1 31 40 0
1 32 38 0
1 32 39 0
1 32 45 0
1 32 49 0
1 33 35 0
1 33 39 0
1 33 40 0
1 33 45 0
1 33 49 0
1 34 40 0
1 34 46 0
1 35 36 0
1 35 42 0
1 36 39 0
1 36 43 0
1 37 42 0
1 37 44 0
1 37 48 0
1 37 49 0
1 38 45 0
1 38 48 0
1 40 48 0
1 40 50 0
1 41 47 0
1 42 46 0
1 42 48 0
1 43 46 0
1 43 49 0
1 45 47 0
1 49 50 0
